\ENCODING=ISO-8859-1
\Problem name: IloCplex

Maximize
 obj: 1706 vnp1 + 1144 vnp2 + 359 vnp3 + 1492 vnp4 + 2179 vnp5 + 1591 vnp6
      + 1457 vnp7 + [ - 170 vn3_vnp1_sn4 * vn1_vnp1_sn2
      - 170 vn3_vnp1_sn4 * vn1_vnp1_sn9 - 60 vn3_vnp1_sn4 * vn2_vnp1_sn3
      - 84 vn3_vnp1_sn4 * vn2_vnp1_sn8 - 152 vn3_vnp1_sn4 * vn2_vnp1_sn6
      - 236 vn3_vnp1_sn4 * vn4_vnp1_sn10 - 78 vn3_vnp1_sn4 * vn4_vnp1_sn19
      - 246 vn1_vnp1_sn2 * vn3_vnp1_sn16 - 154 vn1_vnp1_sn2 * vn2_vnp1_sn3
      - 272 vn1_vnp1_sn2 * vn2_vnp1_sn8 - 424 vn1_vnp1_sn2 * vn2_vnp1_sn6
      - 96 vn1_vnp1_sn9 * vn3_vnp1_sn16 - 44 vn1_vnp1_sn9 * vn2_vnp1_sn3
      - 232 vn1_vnp1_sn9 * vn2_vnp1_sn8 - 204 vn1_vnp1_sn9 * vn2_vnp1_sn6
      - 56 vn3_vnp1_sn16 * vn2_vnp1_sn3 - 92 vn3_vnp1_sn16 * vn2_vnp1_sn8
      - 120 vn3_vnp1_sn16 * vn2_vnp1_sn6 - 162 vn3_vnp1_sn16 * vn4_vnp1_sn10
      - 294 vn3_vnp1_sn16 * vn4_vnp1_sn19 - 150 vn2_vnp1_sn3 * vn4_vnp1_sn10
      - 94 vn2_vnp1_sn3 * vn4_vnp1_sn19 - 142 vn2_vnp1_sn8 * vn4_vnp1_sn10
      - 118 vn2_vnp1_sn8 * vn4_vnp1_sn19 - 138 vn2_vnp1_sn6 * vn4_vnp1_sn10
      - 202 vn2_vnp1_sn6 * vn4_vnp1_sn19 - 40 vn4_vnp2_sn1 * vn1_vnp2_sn19
      - 124 vn4_vnp2_sn1 * vn1_vnp2_sn5 - 184 vn4_vnp2_sn1 * vn1_vnp2_sn12
      - 288 vn4_vnp2_sn1 * vn2_vnp2_sn15 - 48 vn4_vnp2_sn1 * vn2_vnp2_sn7
      - 276 vn4_vnp2_sn1 * vn3_vnp2_sn13 - 108 vn4_vnp2_sn1 * vn3_vnp2_sn2
      - 216 vn4_vnp2_sn1 * vn3_vnp2_sn14 - 48 vn1_vnp2_sn19 * vn4_vnp2_sn4
      - 126 vn1_vnp2_sn19 * vn4_vnp2_sn20 - 120 vn1_vnp2_sn5 * vn4_vnp2_sn4
      - 146 vn1_vnp2_sn5 * vn4_vnp2_sn20 - 128 vn1_vnp2_sn12 * vn4_vnp2_sn4
      - 134 vn1_vnp2_sn12 * vn4_vnp2_sn20 - 348 vn4_vnp2_sn4 * vn2_vnp2_sn15
      - 198 vn4_vnp2_sn4 * vn2_vnp2_sn7 - 270 vn4_vnp2_sn4 * vn3_vnp2_sn13
      - 120 vn4_vnp2_sn4 * vn3_vnp2_sn2 - 228 vn4_vnp2_sn4 * vn3_vnp2_sn14
      - 136 vn4_vnp2_sn20 * vn2_vnp2_sn15 - 366 vn4_vnp2_sn20 * vn2_vnp2_sn7
      - 306 vn4_vnp2_sn20 * vn3_vnp2_sn13 - 252 vn4_vnp2_sn20 * vn3_vnp2_sn2
      - 222 vn4_vnp2_sn20 * vn3_vnp2_sn14 - 110 vn2_vnp2_sn15 * vn3_vnp2_sn13
      - 120 vn2_vnp2_sn15 * vn3_vnp2_sn2 - 74 vn2_vnp2_sn15 * vn3_vnp2_sn14
      - 128 vn2_vnp2_sn7 * vn3_vnp2_sn13 - 64 vn2_vnp2_sn7 * vn3_vnp2_sn2
      - 134 vn2_vnp2_sn7 * vn3_vnp2_sn14 - 186 vn2_vnp3_sn1 * vn1_vnp3_sn6
      - 52 vn2_vnp3_sn1 * vn1_vnp3_sn7 - 42 vn2_vnp3_sn1 * vn3_vnp3_sn9
      - 72 vn2_vnp3_sn1 * vn3_vnp3_sn15 - 38 vn2_vnp3_sn1 * vn3_vnp3_sn3
      - 44 vn1_vnp3_sn6 * vn2_vnp3_sn13 - 78 vn1_vnp3_sn6 * vn3_vnp3_sn9
      - 112 vn1_vnp3_sn6 * vn3_vnp3_sn15 - 96 vn1_vnp3_sn6 * vn3_vnp3_sn3
      - 294 vn1_vnp3_sn7 * vn2_vnp3_sn13 - 116 vn1_vnp3_sn7 * vn3_vnp3_sn9
      - 116 vn1_vnp3_sn7 * vn3_vnp3_sn15 - 78 vn1_vnp3_sn7 * vn3_vnp3_sn3
      - 60 vn2_vnp3_sn13 * vn3_vnp3_sn9 - 90 vn2_vnp3_sn13 * vn3_vnp3_sn15
      - 78 vn2_vnp3_sn13 * vn3_vnp3_sn3 - 508 vn2_vnp4_sn13 * vn1_vnp4_sn19
      - 146 vn2_vnp4_sn13 * vn1_vnp4_sn5 - 150 vn2_vnp4_sn13 * vn3_vnp4_sn9
      - 282 vn2_vnp4_sn13 * vn4_vnp4_sn2 - 42 vn2_vnp4_sn13 * vn4_vnp4_sn6
      - 268 vn2_vnp4_sn13 * vn4_vnp4_sn1 - 372 vn1_vnp4_sn19 * vn3_vnp4_sn9
      - 66 vn1_vnp4_sn5 * vn3_vnp4_sn9 - 152 vn2_vnp5_sn7 * vn1_vnp5_sn14
      - 124 vn2_vnp5_sn7 * vn1_vnp5_sn5 - 78 vn2_vnp5_sn7 * vn1_vnp5_sn8
      - 570 vn2_vnp5_sn7 * vn3_vnp5_sn6 - 256 vn2_vnp5_sn7 * vn4_vnp5_sn9
      - 272 vn2_vnp5_sn7 * vn4_vnp5_sn20 - 154 vn2_vnp5_sn7 * vn4_vnp5_sn2
      - 92 vn1_vnp5_sn14 * vn2_vnp5_sn15 - 306 vn1_vnp5_sn14 * vn3_vnp5_sn6
      - 84 vn1_vnp5_sn5 * vn2_vnp5_sn15 - 134 vn1_vnp5_sn5 * vn3_vnp5_sn6
      - 102 vn1_vnp5_sn8 * vn2_vnp5_sn15 - 354 vn1_vnp5_sn8 * vn3_vnp5_sn6
      - 400 vn2_vnp5_sn15 * vn3_vnp5_sn6 - 136 vn2_vnp5_sn15 * vn4_vnp5_sn9
      - 134 vn2_vnp5_sn15 * vn4_vnp5_sn20 - 226 vn2_vnp5_sn15 * vn4_vnp5_sn2
      - 234 vn3_vnp5_sn6 * vn4_vnp5_sn9 - 490 vn3_vnp5_sn6 * vn4_vnp5_sn20
      - 454 vn3_vnp5_sn6 * vn4_vnp5_sn2 - 198 vn3_vnp6_sn5 * vn1_vnp6_sn11
      - 266 vn3_vnp6_sn5 * vn2_vnp6_sn14 - 162 vn3_vnp6_sn5 * vn2_vnp6_sn16
      - 226 vn3_vnp6_sn5 * vn2_vnp6_sn12 - 340 vn3_vnp6_sn5 * vn4_vnp6_sn19
      - 194 vn3_vnp6_sn5 * vn4_vnp6_sn3 - 194 vn3_vnp6_sn5 * vn4_vnp6_sn10
      - 488 vn1_vnp6_sn11 * vn3_vnp6_sn2 - 318 vn1_vnp6_sn11 * vn3_vnp6_sn13
      - 366 vn3_vnp6_sn2 * vn2_vnp6_sn14 - 262 vn3_vnp6_sn2 * vn2_vnp6_sn16
      - 296 vn3_vnp6_sn2 * vn2_vnp6_sn12 - 220 vn3_vnp6_sn2 * vn4_vnp6_sn19
      - 184 vn3_vnp6_sn2 * vn4_vnp6_sn3 - 484 vn3_vnp6_sn2 * vn4_vnp6_sn10
      - 346 vn3_vnp6_sn13 * vn2_vnp6_sn14 - 412 vn3_vnp6_sn13 * vn2_vnp6_sn16
      - 236 vn3_vnp6_sn13 * vn2_vnp6_sn12 - 690 vn3_vnp6_sn13 * vn4_vnp6_sn19
      - 354 vn3_vnp6_sn13 * vn4_vnp6_sn3 - 304 vn3_vnp6_sn13 * vn4_vnp6_sn10
      - 526 vn2_vnp6_sn14 * vn4_vnp6_sn19 - 230 vn2_vnp6_sn14 * vn4_vnp6_sn3
      - 90 vn2_vnp6_sn14 * vn4_vnp6_sn10 - 302 vn2_vnp6_sn16 * vn4_vnp6_sn19
      - 126 vn2_vnp6_sn16 * vn4_vnp6_sn3 - 166 vn2_vnp6_sn16 * vn4_vnp6_sn10
      - 466 vn2_vnp6_sn12 * vn4_vnp6_sn19 - 380 vn2_vnp6_sn12 * vn4_vnp6_sn3
      - 80 vn2_vnp6_sn12 * vn4_vnp6_sn10 - 432 vn2_vnp7_sn12 * vn1_vnp7_sn2
      - 250 vn2_vnp7_sn12 * vn1_vnp7_sn4 - 146 vn2_vnp7_sn12 * vn3_vnp7_sn16
      - 280 vn2_vnp7_sn12 * vn3_vnp7_sn18 - 256 vn1_vnp7_sn2 * vn3_vnp7_sn16
      - 368 vn1_vnp7_sn2 * vn3_vnp7_sn18 - 330 vn1_vnp7_sn4 * vn3_vnp7_sn16
      - 202 vn1_vnp7_sn4 * vn3_vnp7_sn18 ] / 2
Subject To
 _Embedding_clash_const_of_vnode1_vnp_1#0: - vnp1 + vn1_vnp1_sn2 + vn1_vnp1_sn9
                                 <= 0
 _Embedding_clash_const_of_vnode2_vnp_1#1: - vnp1 + vn2_vnp1_sn3 + vn2_vnp1_sn8
                                 + vn2_vnp1_sn6 <= 0
 _Embedding_clash_const_of_vnode3_vnp_1#2: - vnp1 + vn3_vnp1_sn4
                                 + vn3_vnp1_sn16 <= 0
 _Embedding_clash_const_of_vnode4_vnp_1#3: - vnp1 + vn4_vnp1_sn10
                                 + vn4_vnp1_sn19 <= 0
 _Embedding_clash_const_of_vnode1_vnp_2#4: - vnp2 + vn1_vnp2_sn19
                                 + vn1_vnp2_sn5 + vn1_vnp2_sn12 <= 0
 _Embedding_clash_const_of_vnode2_vnp_2#5: - vnp2 + vn2_vnp2_sn15
                                 + vn2_vnp2_sn7 <= 0
 _Embedding_clash_const_of_vnode3_vnp_2#6: - vnp2 + vn3_vnp2_sn13
                                 + vn3_vnp2_sn2 + vn3_vnp2_sn14 <= 0
 _Embedding_clash_const_of_vnode4_vnp_2#7: - vnp2 + vn4_vnp2_sn1 + vn4_vnp2_sn4
                                 + vn4_vnp2_sn20 <= 0
 _Embedding_clash_const_of_vnode1_vnp_3#8: - vnp3 + vn1_vnp3_sn6 + vn1_vnp3_sn7
                                 <= 0
 _Embedding_clash_const_of_vnode2_vnp_3#9: - vnp3 + vn2_vnp3_sn1
                                 + vn2_vnp3_sn13 <= 0
 _Embedding_clash_const_of_vnode3_vnp_3#10: - vnp3 + vn3_vnp3_sn9
                                 + vn3_vnp3_sn15 + vn3_vnp3_sn3 <= 0
 _Embedding_clash_const_of_vnode1_vnp_4#11: - vnp4 + vn1_vnp4_sn19
                                 + vn1_vnp4_sn5 <= 0
 _Embedding_clash_const_of_vnode2_vnp_4#12: - vnp4 + vn2_vnp4_sn13 <= 0
 _Embedding_clash_const_of_vnode3_vnp_4#13: - vnp4 + vn3_vnp4_sn9 <= 0
 _Embedding_clash_const_of_vnode4_vnp_4#14: - vnp4 + vn4_vnp4_sn2
                                 + vn4_vnp4_sn6 + vn4_vnp4_sn1 <= 0
 _Embedding_clash_const_of_vnode1_vnp_5#15: - vnp5 + vn1_vnp5_sn14
                                 + vn1_vnp5_sn5 + vn1_vnp5_sn8 <= 0
 _Embedding_clash_const_of_vnode2_vnp_5#16: - vnp5 + vn2_vnp5_sn7
                                 + vn2_vnp5_sn15 <= 0
 _Embedding_clash_const_of_vnode3_vnp_5#17: - vnp5 + vn3_vnp5_sn6 <= 0
 _Embedding_clash_const_of_vnode4_vnp_5#18: - vnp5 + vn4_vnp5_sn9
                                 + vn4_vnp5_sn20 + vn4_vnp5_sn2 <= 0
 _Embedding_clash_const_of_vnode1_vnp_6#19: - vnp6 + vn1_vnp6_sn11 <= 0
 _Embedding_clash_const_of_vnode2_vnp_6#20: - vnp6 + vn2_vnp6_sn14
                                 + vn2_vnp6_sn16 + vn2_vnp6_sn12 <= 0
 _Embedding_clash_const_of_vnode3_vnp_6#21: - vnp6 + vn3_vnp6_sn5
                                 + vn3_vnp6_sn2 + vn3_vnp6_sn13 <= 0
 _Embedding_clash_const_of_vnode4_vnp_6#22: - vnp6 + vn4_vnp6_sn19
                                 + vn4_vnp6_sn3 + vn4_vnp6_sn10 <= 0
 _Embedding_clash_const_of_vnode1_vnp_7#23: - vnp7 + vn1_vnp7_sn2
                                 + vn1_vnp7_sn4 <= 0
 _Embedding_clash_const_of_vnode2_vnp_7#24: - vnp7 + vn2_vnp7_sn12 <= 0
 _Embedding_clash_const_of_vnode3_vnp_7#25: - vnp7 + vn3_vnp7_sn16
                                 + vn3_vnp7_sn18 <= 0
 No_partial_embedding_of_Virtual_Network_1_Virtual_Link_1#0: vnp1
                                 + [ - vn3_vnp1_sn4 * vn1_vnp1_sn2
                                 - vn3_vnp1_sn4 * vn1_vnp1_sn9
                                 - vn1_vnp1_sn2 * vn3_vnp1_sn16
                                 - vn1_vnp1_sn9 * vn3_vnp1_sn16 ] <= 0
 No_partial_embedding_of_Virtual_Network_1_Virtual_Link_2#1: vnp1
                                 + [ - vn3_vnp1_sn4 * vn2_vnp1_sn3
                                 - vn3_vnp1_sn4 * vn2_vnp1_sn8
                                 - vn3_vnp1_sn4 * vn2_vnp1_sn6
                                 - vn3_vnp1_sn16 * vn2_vnp1_sn3
                                 - vn3_vnp1_sn16 * vn2_vnp1_sn8
                                 - vn3_vnp1_sn16 * vn2_vnp1_sn6 ] <= 0
 No_partial_embedding_of_Virtual_Network_1_Virtual_Link_3#2: vnp1
                                 + [ - vn3_vnp1_sn4 * vn4_vnp1_sn10
                                 - vn3_vnp1_sn4 * vn4_vnp1_sn19
                                 - vn3_vnp1_sn16 * vn4_vnp1_sn10
                                 - vn3_vnp1_sn16 * vn4_vnp1_sn19 ] <= 0
 No_partial_embedding_of_Virtual_Network_1_Virtual_Link_4#3: vnp1
                                 + [ - vn2_vnp1_sn3 * vn4_vnp1_sn10
                                 - vn2_vnp1_sn3 * vn4_vnp1_sn19
                                 - vn2_vnp1_sn8 * vn4_vnp1_sn10
                                 - vn2_vnp1_sn8 * vn4_vnp1_sn19
                                 - vn2_vnp1_sn6 * vn4_vnp1_sn10
                                 - vn2_vnp1_sn6 * vn4_vnp1_sn19 ] <= 0
 No_partial_embedding_of_Virtual_Network_1_Virtual_Link_5#4: vnp1
                                 + [ - vn1_vnp1_sn2 * vn2_vnp1_sn3
                                 - vn1_vnp1_sn2 * vn2_vnp1_sn8
                                 - vn1_vnp1_sn2 * vn2_vnp1_sn6
                                 - vn1_vnp1_sn9 * vn2_vnp1_sn3
                                 - vn1_vnp1_sn9 * vn2_vnp1_sn8
                                 - vn1_vnp1_sn9 * vn2_vnp1_sn6 ] <= 0
 No_partial_embedding_of_Virtual_Network_2_Virtual_Link_6#5: vnp2
                                 + [ - vn4_vnp2_sn1 * vn1_vnp2_sn19
                                 - vn4_vnp2_sn1 * vn1_vnp2_sn5
                                 - vn4_vnp2_sn1 * vn1_vnp2_sn12
                                 - vn1_vnp2_sn19 * vn4_vnp2_sn4
                                 - vn1_vnp2_sn19 * vn4_vnp2_sn20
                                 - vn1_vnp2_sn5 * vn4_vnp2_sn4
                                 - vn1_vnp2_sn5 * vn4_vnp2_sn20
                                 - vn1_vnp2_sn12 * vn4_vnp2_sn4
                                 - vn1_vnp2_sn12 * vn4_vnp2_sn20 ] <= 0
 No_partial_embedding_of_Virtual_Network_2_Virtual_Link_7#6: vnp2
                                 + [ - vn4_vnp2_sn1 * vn2_vnp2_sn15
                                 - vn4_vnp2_sn1 * vn2_vnp2_sn7
                                 - vn4_vnp2_sn4 * vn2_vnp2_sn15
                                 - vn4_vnp2_sn4 * vn2_vnp2_sn7
                                 - vn4_vnp2_sn20 * vn2_vnp2_sn15
                                 - vn4_vnp2_sn20 * vn2_vnp2_sn7 ] <= 0
 No_partial_embedding_of_Virtual_Network_2_Virtual_Link_8#7: vnp2
                                 + [ - vn4_vnp2_sn1 * vn3_vnp2_sn13
                                 - vn4_vnp2_sn1 * vn3_vnp2_sn2
                                 - vn4_vnp2_sn1 * vn3_vnp2_sn14
                                 - vn4_vnp2_sn4 * vn3_vnp2_sn13
                                 - vn4_vnp2_sn4 * vn3_vnp2_sn2
                                 - vn4_vnp2_sn4 * vn3_vnp2_sn14
                                 - vn4_vnp2_sn20 * vn3_vnp2_sn13
                                 - vn4_vnp2_sn20 * vn3_vnp2_sn2
                                 - vn4_vnp2_sn20 * vn3_vnp2_sn14 ] <= 0
 No_partial_embedding_of_Virtual_Network_2_Virtual_Link_9#8: vnp2
                                 + [ - vn2_vnp2_sn15 * vn3_vnp2_sn13
                                 - vn2_vnp2_sn15 * vn3_vnp2_sn2
                                 - vn2_vnp2_sn15 * vn3_vnp2_sn14
                                 - vn2_vnp2_sn7 * vn3_vnp2_sn13
                                 - vn2_vnp2_sn7 * vn3_vnp2_sn2
                                 - vn2_vnp2_sn7 * vn3_vnp2_sn14 ] <= 0
 No_partial_embedding_of_Virtual_Network_3_Virtual_Link_10#9: vnp3
                                 + [ - vn2_vnp3_sn1 * vn1_vnp3_sn6
                                 - vn2_vnp3_sn1 * vn1_vnp3_sn7
                                 - vn1_vnp3_sn6 * vn2_vnp3_sn13
                                 - vn1_vnp3_sn7 * vn2_vnp3_sn13 ] <= 0
 No_partial_embedding_of_Virtual_Network_3_Virtual_Link_11#10: vnp3
                                 + [ - vn2_vnp3_sn1 * vn3_vnp3_sn9
                                 - vn2_vnp3_sn1 * vn3_vnp3_sn15
                                 - vn2_vnp3_sn1 * vn3_vnp3_sn3
                                 - vn2_vnp3_sn13 * vn3_vnp3_sn9
                                 - vn2_vnp3_sn13 * vn3_vnp3_sn15
                                 - vn2_vnp3_sn13 * vn3_vnp3_sn3 ] <= 0
 No_partial_embedding_of_Virtual_Network_3_Virtual_Link_12#11: vnp3
                                 + [ - vn1_vnp3_sn6 * vn3_vnp3_sn9
                                 - vn1_vnp3_sn6 * vn3_vnp3_sn15
                                 - vn1_vnp3_sn6 * vn3_vnp3_sn3
                                 - vn1_vnp3_sn7 * vn3_vnp3_sn9
                                 - vn1_vnp3_sn7 * vn3_vnp3_sn15
                                 - vn1_vnp3_sn7 * vn3_vnp3_sn3 ] <= 0
 No_partial_embedding_of_Virtual_Network_4_Virtual_Link_13#12: vnp4
                                 + [ - vn2_vnp4_sn13 * vn1_vnp4_sn19
                                 - vn2_vnp4_sn13 * vn1_vnp4_sn5 ] <= 0
 No_partial_embedding_of_Virtual_Network_4_Virtual_Link_14#13: vnp4
                                 + [ - vn2_vnp4_sn13 * vn3_vnp4_sn9 ] <= 0
 No_partial_embedding_of_Virtual_Network_4_Virtual_Link_15#14: vnp4
                                 + [ - vn1_vnp4_sn19 * vn3_vnp4_sn9
                                 - vn1_vnp4_sn5 * vn3_vnp4_sn9 ] <= 0
 No_partial_embedding_of_Virtual_Network_4_Virtual_Link_16#15: vnp4
                                 + [ - vn2_vnp4_sn13 * vn4_vnp4_sn2
                                 - vn2_vnp4_sn13 * vn4_vnp4_sn6
                                 - vn2_vnp4_sn13 * vn4_vnp4_sn1 ] <= 0
 No_partial_embedding_of_Virtual_Network_5_Virtual_Link_17#16: vnp5
                                 + [ - vn2_vnp5_sn7 * vn1_vnp5_sn14
                                 - vn2_vnp5_sn7 * vn1_vnp5_sn5
                                 - vn2_vnp5_sn7 * vn1_vnp5_sn8
                                 - vn1_vnp5_sn14 * vn2_vnp5_sn15
                                 - vn1_vnp5_sn5 * vn2_vnp5_sn15
                                 - vn1_vnp5_sn8 * vn2_vnp5_sn15 ] <= 0
 No_partial_embedding_of_Virtual_Network_5_Virtual_Link_18#17: vnp5
                                 + [ - vn2_vnp5_sn7 * vn3_vnp5_sn6
                                 - vn2_vnp5_sn15 * vn3_vnp5_sn6 ] <= 0
 No_partial_embedding_of_Virtual_Network_5_Virtual_Link_19#18: vnp5
                                 + [ - vn3_vnp5_sn6 * vn4_vnp5_sn9
                                 - vn3_vnp5_sn6 * vn4_vnp5_sn20
                                 - vn3_vnp5_sn6 * vn4_vnp5_sn2 ] <= 0
 No_partial_embedding_of_Virtual_Network_5_Virtual_Link_20#19: vnp5
                                 + [ - vn1_vnp5_sn14 * vn3_vnp5_sn6
                                 - vn1_vnp5_sn5 * vn3_vnp5_sn6
                                 - vn1_vnp5_sn8 * vn3_vnp5_sn6 ] <= 0
 No_partial_embedding_of_Virtual_Network_5_Virtual_Link_21#20: vnp5
                                 + [ - vn2_vnp5_sn7 * vn4_vnp5_sn9
                                 - vn2_vnp5_sn7 * vn4_vnp5_sn20
                                 - vn2_vnp5_sn7 * vn4_vnp5_sn2
                                 - vn2_vnp5_sn15 * vn4_vnp5_sn9
                                 - vn2_vnp5_sn15 * vn4_vnp5_sn20
                                 - vn2_vnp5_sn15 * vn4_vnp5_sn2 ] <= 0
 No_partial_embedding_of_Virtual_Network_6_Virtual_Link_22#21: vnp6
                                 + [ - vn3_vnp6_sn5 * vn1_vnp6_sn11
                                 - vn1_vnp6_sn11 * vn3_vnp6_sn2
                                 - vn1_vnp6_sn11 * vn3_vnp6_sn13 ] <= 0
 No_partial_embedding_of_Virtual_Network_6_Virtual_Link_23#22: vnp6
                                 + [ - vn3_vnp6_sn5 * vn2_vnp6_sn14
                                 - vn3_vnp6_sn5 * vn2_vnp6_sn16
                                 - vn3_vnp6_sn5 * vn2_vnp6_sn12
                                 - vn3_vnp6_sn2 * vn2_vnp6_sn14
                                 - vn3_vnp6_sn2 * vn2_vnp6_sn16
                                 - vn3_vnp6_sn2 * vn2_vnp6_sn12
                                 - vn3_vnp6_sn13 * vn2_vnp6_sn14
                                 - vn3_vnp6_sn13 * vn2_vnp6_sn16
                                 - vn3_vnp6_sn13 * vn2_vnp6_sn12 ] <= 0
 No_partial_embedding_of_Virtual_Network_6_Virtual_Link_24#23: vnp6
                                 + [ - vn3_vnp6_sn5 * vn4_vnp6_sn19
                                 - vn3_vnp6_sn5 * vn4_vnp6_sn3
                                 - vn3_vnp6_sn5 * vn4_vnp6_sn10
                                 - vn3_vnp6_sn2 * vn4_vnp6_sn19
                                 - vn3_vnp6_sn2 * vn4_vnp6_sn3
                                 - vn3_vnp6_sn2 * vn4_vnp6_sn10
                                 - vn3_vnp6_sn13 * vn4_vnp6_sn19
                                 - vn3_vnp6_sn13 * vn4_vnp6_sn3
                                 - vn3_vnp6_sn13 * vn4_vnp6_sn10 ] <= 0
 No_partial_embedding_of_Virtual_Network_6_Virtual_Link_25#24: vnp6
                                 + [ - vn2_vnp6_sn14 * vn4_vnp6_sn19
                                 - vn2_vnp6_sn14 * vn4_vnp6_sn3
                                 - vn2_vnp6_sn14 * vn4_vnp6_sn10
                                 - vn2_vnp6_sn16 * vn4_vnp6_sn19
                                 - vn2_vnp6_sn16 * vn4_vnp6_sn3
                                 - vn2_vnp6_sn16 * vn4_vnp6_sn10
                                 - vn2_vnp6_sn12 * vn4_vnp6_sn19
                                 - vn2_vnp6_sn12 * vn4_vnp6_sn3
                                 - vn2_vnp6_sn12 * vn4_vnp6_sn10 ] <= 0
 No_partial_embedding_of_Virtual_Network_7_Virtual_Link_26#25: vnp7
                                 + [ - vn2_vnp7_sn12 * vn1_vnp7_sn2
                                 - vn2_vnp7_sn12 * vn1_vnp7_sn4 ] <= 0
 No_partial_embedding_of_Virtual_Network_7_Virtual_Link_27#26: vnp7
                                 + [ - vn2_vnp7_sn12 * vn3_vnp7_sn16
                                 - vn2_vnp7_sn12 * vn3_vnp7_sn18 ] <= 0
 No_partial_embedding_of_Virtual_Network_7_Virtual_Link_28#27: vnp7
                                 + [ - vn1_vnp7_sn2 * vn3_vnp7_sn16
                                 - vn1_vnp7_sn2 * vn3_vnp7_sn18
                                 - vn1_vnp7_sn4 * vn3_vnp7_sn16
                                 - vn1_vnp7_sn4 * vn3_vnp7_sn18 ] <= 0
 q29#28:                         1706 vnp1 + 1144 vnp2 + 359 vnp3 + 1492 vnp4
                                 + 2179 vnp5 + 1591 vnp6 + 1457 vnp7
                                 + [ - 85 vn3_vnp1_sn4 * vn1_vnp1_sn2
                                 - 85 vn3_vnp1_sn4 * vn1_vnp1_sn9
                                 - 30 vn3_vnp1_sn4 * vn2_vnp1_sn3
                                 - 42 vn3_vnp1_sn4 * vn2_vnp1_sn8
                                 - 76 vn3_vnp1_sn4 * vn2_vnp1_sn6
                                 - 118 vn3_vnp1_sn4 * vn4_vnp1_sn10
                                 - 39 vn3_vnp1_sn4 * vn4_vnp1_sn19
                                 - 123 vn1_vnp1_sn2 * vn3_vnp1_sn16
                                 - 77 vn1_vnp1_sn2 * vn2_vnp1_sn3
                                 - 136 vn1_vnp1_sn2 * vn2_vnp1_sn8
                                 - 212 vn1_vnp1_sn2 * vn2_vnp1_sn6
                                 - 48 vn1_vnp1_sn9 * vn3_vnp1_sn16
                                 - 22 vn1_vnp1_sn9 * vn2_vnp1_sn3
                                 - 116 vn1_vnp1_sn9 * vn2_vnp1_sn8
                                 - 102 vn1_vnp1_sn9 * vn2_vnp1_sn6
                                 - 28 vn3_vnp1_sn16 * vn2_vnp1_sn3
                                 - 46 vn3_vnp1_sn16 * vn2_vnp1_sn8
                                 - 60 vn3_vnp1_sn16 * vn2_vnp1_sn6
                                 - 81 vn3_vnp1_sn16 * vn4_vnp1_sn10
                                 - 147 vn3_vnp1_sn16 * vn4_vnp1_sn19
                                 - 75 vn2_vnp1_sn3 * vn4_vnp1_sn10
                                 - 47 vn2_vnp1_sn3 * vn4_vnp1_sn19
                                 - 71 vn2_vnp1_sn8 * vn4_vnp1_sn10
                                 - 59 vn2_vnp1_sn8 * vn4_vnp1_sn19
                                 - 69 vn2_vnp1_sn6 * vn4_vnp1_sn10
                                 - 101 vn2_vnp1_sn6 * vn4_vnp1_sn19
                                 - 20 vn4_vnp2_sn1 * vn1_vnp2_sn19
                                 - 62 vn4_vnp2_sn1 * vn1_vnp2_sn5
                                 - 92 vn4_vnp2_sn1 * vn1_vnp2_sn12
                                 - 144 vn4_vnp2_sn1 * vn2_vnp2_sn15
                                 - 24 vn4_vnp2_sn1 * vn2_vnp2_sn7
                                 - 138 vn4_vnp2_sn1 * vn3_vnp2_sn13
                                 - 54 vn4_vnp2_sn1 * vn3_vnp2_sn2
                                 - 108 vn4_vnp2_sn1 * vn3_vnp2_sn14
                                 - 24 vn1_vnp2_sn19 * vn4_vnp2_sn4
                                 - 63 vn1_vnp2_sn19 * vn4_vnp2_sn20
                                 - 60 vn1_vnp2_sn5 * vn4_vnp2_sn4
                                 - 73 vn1_vnp2_sn5 * vn4_vnp2_sn20
                                 - 64 vn1_vnp2_sn12 * vn4_vnp2_sn4
                                 - 67 vn1_vnp2_sn12 * vn4_vnp2_sn20
                                 - 174 vn4_vnp2_sn4 * vn2_vnp2_sn15
                                 - 99 vn4_vnp2_sn4 * vn2_vnp2_sn7
                                 - 135 vn4_vnp2_sn4 * vn3_vnp2_sn13
                                 - 60 vn4_vnp2_sn4 * vn3_vnp2_sn2
                                 - 114 vn4_vnp2_sn4 * vn3_vnp2_sn14
                                 - 68 vn4_vnp2_sn20 * vn2_vnp2_sn15
                                 - 183 vn4_vnp2_sn20 * vn2_vnp2_sn7
                                 - 153 vn4_vnp2_sn20 * vn3_vnp2_sn13
                                 - 126 vn4_vnp2_sn20 * vn3_vnp2_sn2
                                 - 111 vn4_vnp2_sn20 * vn3_vnp2_sn14
                                 - 55 vn2_vnp2_sn15 * vn3_vnp2_sn13
                                 - 60 vn2_vnp2_sn15 * vn3_vnp2_sn2
                                 - 37 vn2_vnp2_sn15 * vn3_vnp2_sn14
                                 - 64 vn2_vnp2_sn7 * vn3_vnp2_sn13
                                 - 32 vn2_vnp2_sn7 * vn3_vnp2_sn2
                                 - 67 vn2_vnp2_sn7 * vn3_vnp2_sn14
                                 - 93 vn2_vnp3_sn1 * vn1_vnp3_sn6
                                 - 26 vn2_vnp3_sn1 * vn1_vnp3_sn7
                                 - 21 vn2_vnp3_sn1 * vn3_vnp3_sn9
                                 - 36 vn2_vnp3_sn1 * vn3_vnp3_sn15
                                 - 19 vn2_vnp3_sn1 * vn3_vnp3_sn3
                                 - 22 vn1_vnp3_sn6 * vn2_vnp3_sn13
                                 - 39 vn1_vnp3_sn6 * vn3_vnp3_sn9
                                 - 56 vn1_vnp3_sn6 * vn3_vnp3_sn15
                                 - 48 vn1_vnp3_sn6 * vn3_vnp3_sn3
                                 - 147 vn1_vnp3_sn7 * vn2_vnp3_sn13
                                 - 58 vn1_vnp3_sn7 * vn3_vnp3_sn9
                                 - 58 vn1_vnp3_sn7 * vn3_vnp3_sn15
                                 - 39 vn1_vnp3_sn7 * vn3_vnp3_sn3
                                 - 30 vn2_vnp3_sn13 * vn3_vnp3_sn9
                                 - 45 vn2_vnp3_sn13 * vn3_vnp3_sn15
                                 - 39 vn2_vnp3_sn13 * vn3_vnp3_sn3
                                 - 254 vn2_vnp4_sn13 * vn1_vnp4_sn19
                                 - 73 vn2_vnp4_sn13 * vn1_vnp4_sn5
                                 - 75 vn2_vnp4_sn13 * vn3_vnp4_sn9
                                 - 141 vn2_vnp4_sn13 * vn4_vnp4_sn2
                                 - 21 vn2_vnp4_sn13 * vn4_vnp4_sn6
                                 - 134 vn2_vnp4_sn13 * vn4_vnp4_sn1
                                 - 186 vn1_vnp4_sn19 * vn3_vnp4_sn9
                                 - 33 vn1_vnp4_sn5 * vn3_vnp4_sn9
                                 - 76 vn2_vnp5_sn7 * vn1_vnp5_sn14
                                 - 62 vn2_vnp5_sn7 * vn1_vnp5_sn5
                                 - 39 vn2_vnp5_sn7 * vn1_vnp5_sn8
                                 - 285 vn2_vnp5_sn7 * vn3_vnp5_sn6
                                 - 128 vn2_vnp5_sn7 * vn4_vnp5_sn9
                                 - 136 vn2_vnp5_sn7 * vn4_vnp5_sn20
                                 - 77 vn2_vnp5_sn7 * vn4_vnp5_sn2
                                 - 46 vn1_vnp5_sn14 * vn2_vnp5_sn15
                                 - 153 vn1_vnp5_sn14 * vn3_vnp5_sn6
                                 - 42 vn1_vnp5_sn5 * vn2_vnp5_sn15
                                 - 67 vn1_vnp5_sn5 * vn3_vnp5_sn6
                                 - 51 vn1_vnp5_sn8 * vn2_vnp5_sn15
                                 - 177 vn1_vnp5_sn8 * vn3_vnp5_sn6
                                 - 200 vn2_vnp5_sn15 * vn3_vnp5_sn6
                                 - 68 vn2_vnp5_sn15 * vn4_vnp5_sn9
                                 - 67 vn2_vnp5_sn15 * vn4_vnp5_sn20
                                 - 113 vn2_vnp5_sn15 * vn4_vnp5_sn2
                                 - 117 vn3_vnp5_sn6 * vn4_vnp5_sn9
                                 - 245 vn3_vnp5_sn6 * vn4_vnp5_sn20
                                 - 227 vn3_vnp5_sn6 * vn4_vnp5_sn2
                                 - 99 vn3_vnp6_sn5 * vn1_vnp6_sn11
                                 - 133 vn3_vnp6_sn5 * vn2_vnp6_sn14
                                 - 81 vn3_vnp6_sn5 * vn2_vnp6_sn16
                                 - 113 vn3_vnp6_sn5 * vn2_vnp6_sn12
                                 - 170 vn3_vnp6_sn5 * vn4_vnp6_sn19
                                 - 97 vn3_vnp6_sn5 * vn4_vnp6_sn3
                                 - 97 vn3_vnp6_sn5 * vn4_vnp6_sn10
                                 - 244 vn1_vnp6_sn11 * vn3_vnp6_sn2
                                 - 159 vn1_vnp6_sn11 * vn3_vnp6_sn13
                                 - 183 vn3_vnp6_sn2 * vn2_vnp6_sn14
                                 - 131 vn3_vnp6_sn2 * vn2_vnp6_sn16
                                 - 148 vn3_vnp6_sn2 * vn2_vnp6_sn12
                                 - 110 vn3_vnp6_sn2 * vn4_vnp6_sn19
                                 - 92 vn3_vnp6_sn2 * vn4_vnp6_sn3
                                 - 242 vn3_vnp6_sn2 * vn4_vnp6_sn10
                                 - 173 vn3_vnp6_sn13 * vn2_vnp6_sn14
                                 - 206 vn3_vnp6_sn13 * vn2_vnp6_sn16
                                 - 118 vn3_vnp6_sn13 * vn2_vnp6_sn12
                                 - 345 vn3_vnp6_sn13 * vn4_vnp6_sn19
                                 - 177 vn3_vnp6_sn13 * vn4_vnp6_sn3
                                 - 152 vn3_vnp6_sn13 * vn4_vnp6_sn10
                                 - 263 vn2_vnp6_sn14 * vn4_vnp6_sn19
                                 - 115 vn2_vnp6_sn14 * vn4_vnp6_sn3
                                 - 45 vn2_vnp6_sn14 * vn4_vnp6_sn10
                                 - 151 vn2_vnp6_sn16 * vn4_vnp6_sn19
                                 - 63 vn2_vnp6_sn16 * vn4_vnp6_sn3
                                 - 83 vn2_vnp6_sn16 * vn4_vnp6_sn10
                                 - 233 vn2_vnp6_sn12 * vn4_vnp6_sn19
                                 - 190 vn2_vnp6_sn12 * vn4_vnp6_sn3
                                 - 40 vn2_vnp6_sn12 * vn4_vnp6_sn10
                                 - 216 vn2_vnp7_sn12 * vn1_vnp7_sn2
                                 - 125 vn2_vnp7_sn12 * vn1_vnp7_sn4
                                 - 73 vn2_vnp7_sn12 * vn3_vnp7_sn16
                                 - 140 vn2_vnp7_sn12 * vn3_vnp7_sn18
                                 - 128 vn1_vnp7_sn2 * vn3_vnp7_sn16
                                 - 184 vn1_vnp7_sn2 * vn3_vnp7_sn18
                                 - 165 vn1_vnp7_sn4 * vn3_vnp7_sn16
                                 - 101 vn1_vnp7_sn4 * vn3_vnp7_sn18 ] >= 0
Lazy Constraints
 CPU_capacity_of_substrate_node_1#0: 3 vn4_vnp2_sn1 + vn2_vnp3_sn1
                                 + vn4_vnp4_sn1 <= 4
 CPU_capacity_of_substrate_node_2#1: 2 vn1_vnp1_sn2 + 3 vn3_vnp2_sn2
                                 + vn4_vnp4_sn2 + 4 vn4_vnp5_sn2
                                 + 5 vn3_vnp6_sn2 + 3 vn1_vnp7_sn2 <= 8
 CPU_capacity_of_substrate_node_3#2: 2 vn2_vnp1_sn3 + 2 vn3_vnp3_sn3
                                 + 4 vn4_vnp6_sn3 <= 4
 CPU_capacity_of_substrate_node_4#3: 2 vn3_vnp1_sn4 + 3 vn4_vnp2_sn4
                                 + 3 vn1_vnp7_sn4 <= 2
 CPU_capacity_of_substrate_node_5#4: 2 vn1_vnp2_sn5 + 3 vn1_vnp4_sn5
                                 + 2 vn1_vnp5_sn5 + 5 vn3_vnp6_sn5 <= 6
 CPU_capacity_of_substrate_node_6#5: 2 vn2_vnp1_sn6 + 5 vn1_vnp3_sn6
                                 + vn4_vnp4_sn6 + 5 vn3_vnp5_sn6 <= 8
 CPU_capacity_of_substrate_node_7#6: 2 vn2_vnp2_sn7 + 5 vn1_vnp3_sn7
                                 + 5 vn2_vnp5_sn7 <= 3
 CPU_capacity_of_substrate_node_8#7: 2 vn2_vnp1_sn8 + 2 vn1_vnp5_sn8 <= 6
 CPU_capacity_of_substrate_node_9#8: 2 vn1_vnp1_sn9 + 2 vn3_vnp3_sn9
                                 + vn3_vnp4_sn9 + 4 vn4_vnp5_sn9 <= 6
 CPU_capacity_of_substrate_node_10#9: 3 vn4_vnp1_sn10 + 4 vn4_vnp6_sn10 <= 3
 CPU_capacity_of_substrate_node_11#10: 2 vn1_vnp6_sn11 <= 8
 CPU_capacity_of_substrate_node_12#11: 2 vn1_vnp2_sn12 + vn2_vnp6_sn12
                                 + 5 vn2_vnp7_sn12 <= 7
 CPU_capacity_of_substrate_node_13#12: 3 vn3_vnp2_sn13 + vn2_vnp3_sn13
                                 + 3 vn2_vnp4_sn13 + 5 vn3_vnp6_sn13 <= 8
 CPU_capacity_of_substrate_node_14#13: 3 vn3_vnp2_sn14 + 2 vn1_vnp5_sn14
                                 + vn2_vnp6_sn14 <= 0
 CPU_capacity_of_substrate_node_15#14: 2 vn2_vnp2_sn15 + 2 vn3_vnp3_sn15
                                 + 5 vn2_vnp5_sn15 <= 8
 CPU_capacity_of_substrate_node_16#15: 2 vn3_vnp1_sn16 + vn2_vnp6_sn16
                                 + 4 vn3_vnp7_sn16 <= 3
 CPU_capacity_of_substrate_node_18#16: 4 vn3_vnp7_sn18 <= 2
 CPU_capacity_of_substrate_node_19#17: 3 vn4_vnp1_sn19 + 2 vn1_vnp2_sn19
                                 + 3 vn1_vnp4_sn19 + 4 vn4_vnp6_sn19 <= 3
 CPU_capacity_of_substrate_node_20#18: 3 vn4_vnp2_sn20 + 4 vn4_vnp5_sn20 <= 5
Bounds
 0 <= vnp1 <= 1
 0 <= vn3_vnp1_sn4 <= 1
 0 <= vn1_vnp1_sn2 <= 1
 0 <= vn1_vnp1_sn9 <= 1
 0 <= vn3_vnp1_sn16 <= 1
 0 <= vn2_vnp1_sn3 <= 1
 0 <= vn2_vnp1_sn8 <= 1
 0 <= vn2_vnp1_sn6 <= 1
 0 <= vn4_vnp1_sn10 <= 1
 0 <= vn4_vnp1_sn19 <= 1
 0 <= vnp2 <= 1
 0 <= vn4_vnp2_sn1 <= 1
 0 <= vn1_vnp2_sn19 <= 1
 0 <= vn1_vnp2_sn5 <= 1
 0 <= vn1_vnp2_sn12 <= 1
 0 <= vn4_vnp2_sn4 <= 1
 0 <= vn4_vnp2_sn20 <= 1
 0 <= vn2_vnp2_sn15 <= 1
 0 <= vn2_vnp2_sn7 <= 1
 0 <= vn3_vnp2_sn13 <= 1
 0 <= vn3_vnp2_sn2 <= 1
 0 <= vn3_vnp2_sn14 <= 1
 0 <= vnp3 <= 1
 0 <= vn2_vnp3_sn1 <= 1
 0 <= vn1_vnp3_sn6 <= 1
 0 <= vn1_vnp3_sn7 <= 1
 0 <= vn2_vnp3_sn13 <= 1
 0 <= vn3_vnp3_sn9 <= 1
 0 <= vn3_vnp3_sn15 <= 1
 0 <= vn3_vnp3_sn3 <= 1
 0 <= vnp4 <= 1
 0 <= vn2_vnp4_sn13 <= 1
 0 <= vn1_vnp4_sn19 <= 1
 0 <= vn1_vnp4_sn5 <= 1
 0 <= vn3_vnp4_sn9 <= 1
 0 <= vn4_vnp4_sn2 <= 1
 0 <= vn4_vnp4_sn6 <= 1
 0 <= vn4_vnp4_sn1 <= 1
 0 <= vnp5 <= 1
 0 <= vn2_vnp5_sn7 <= 1
 0 <= vn1_vnp5_sn14 <= 1
 0 <= vn1_vnp5_sn5 <= 1
 0 <= vn1_vnp5_sn8 <= 1
 0 <= vn2_vnp5_sn15 <= 1
 0 <= vn3_vnp5_sn6 <= 1
 0 <= vn4_vnp5_sn9 <= 1
 0 <= vn4_vnp5_sn20 <= 1
 0 <= vn4_vnp5_sn2 <= 1
 0 <= vnp6 <= 1
 0 <= vn3_vnp6_sn5 <= 1
 0 <= vn1_vnp6_sn11 <= 1
 0 <= vn3_vnp6_sn2 <= 1
 0 <= vn3_vnp6_sn13 <= 1
 0 <= vn2_vnp6_sn14 <= 1
 0 <= vn2_vnp6_sn16 <= 1
 0 <= vn2_vnp6_sn12 <= 1
 0 <= vn4_vnp6_sn19 <= 1
 0 <= vn4_vnp6_sn3 <= 1
 0 <= vn4_vnp6_sn10 <= 1
 0 <= vnp7 <= 1
 0 <= vn2_vnp7_sn12 <= 1
 0 <= vn1_vnp7_sn2 <= 1
 0 <= vn1_vnp7_sn4 <= 1
 0 <= vn3_vnp7_sn16 <= 1
 0 <= vn3_vnp7_sn18 <= 1
Binaries
 vnp1  vn3_vnp1_sn4  vn1_vnp1_sn2  vn1_vnp1_sn9  vn3_vnp1_sn16  vn2_vnp1_sn3 
 vn2_vnp1_sn8  vn2_vnp1_sn6  vn4_vnp1_sn10  vn4_vnp1_sn19  vnp2  vn4_vnp2_sn1 
 vn1_vnp2_sn19  vn1_vnp2_sn5  vn1_vnp2_sn12  vn4_vnp2_sn4  vn4_vnp2_sn20 
 vn2_vnp2_sn15  vn2_vnp2_sn7  vn3_vnp2_sn13  vn3_vnp2_sn2  vn3_vnp2_sn14  vnp3 
 vn2_vnp3_sn1  vn1_vnp3_sn6  vn1_vnp3_sn7  vn2_vnp3_sn13  vn3_vnp3_sn9 
 vn3_vnp3_sn15  vn3_vnp3_sn3  vnp4  vn2_vnp4_sn13  vn1_vnp4_sn19  vn1_vnp4_sn5 
 vn3_vnp4_sn9  vn4_vnp4_sn2  vn4_vnp4_sn6  vn4_vnp4_sn1  vnp5  vn2_vnp5_sn7 
 vn1_vnp5_sn14  vn1_vnp5_sn5  vn1_vnp5_sn8  vn2_vnp5_sn15  vn3_vnp5_sn6 
 vn4_vnp5_sn9  vn4_vnp5_sn20  vn4_vnp5_sn2  vnp6  vn3_vnp6_sn5  vn1_vnp6_sn11 
 vn3_vnp6_sn2  vn3_vnp6_sn13  vn2_vnp6_sn14  vn2_vnp6_sn16  vn2_vnp6_sn12 
 vn4_vnp6_sn19  vn4_vnp6_sn3  vn4_vnp6_sn10  vnp7  vn2_vnp7_sn12  vn1_vnp7_sn2 
 vn1_vnp7_sn4  vn3_vnp7_sn16  vn3_vnp7_sn18 
End
